40
1 0 5
2 0 3
2 1 6
3 0 6
3 1 6
3 2 5
4 0 1
4 1 5
4 2 7
4 3 1
5 0 8
5 1 10
5 2 6
5 3 1
5 4 10
6 0 4
6 1 6
6 2 8
6 3 2
6 4 4
6 5 10
7 0 2
7 1 1
7 2 5
7 3 6
7 4 7
7 5 10
7 6 6
8 0 10
8 1 10
8 2 1
8 3 2
8 4 2
8 5 8
8 6 3
8 7 10
9 0 10
9 1 4
9 2 5
9 3 2
9 4 3
9 5 1
9 6 9
9 7 3
9 8 8
10 0 5
10 1 1
10 2 8
10 3 3
10 4 1
10 5 5
10 6 6
10 7 4
10 8 1
10 9 5
11 0 5
11 1 6
11 2 3
11 3 8
11 4 3
11 5 8
11 6 2
11 7 10
11 8 9
11 9 8
11 10 7
12 0 4
12 1 4
12 2 2
12 3 8
12 4 6
12 5 10
12 6 4
12 7 7
12 8 4
12 9 2
12 10 9
12 11 3
13 0 6
13 1 5
13 2 1
13 3 5
13 4 3
13 5 8
13 6 10
13 7 4
13 8 6
13 9 10
13 10 1
13 11 3
13 12 4
14 0 2
14 1 8
14 2 5
14 3 8
14 4 8
14 5 5
14 6 9
14 7 7
14 8 4
14 9 6
14 10 3
14 11 4
14 12 3
14 13 3
15 0 9
15 1 6
15 2 8
15 3 10
15 4 4
15 5 9
15 6 9
15 7 2
15 8 7
15 9 8
15 10 5
15 11 5
15 12 2
15 13 6
15 14 7
16 0 7
16 1 7
16 2 9
16 3 5
16 4 1
16 5 8
16 6 1
16 7 9
16 8 10
16 9 6
16 10 9
16 11 2
16 12 10
16 13 5
16 14 8
16 15 3
17 0 3
17 1 5
17 2 1
17 3 10
17 4 2
17 5 5
17 6 4
17 7 3
17 8 10
17 9 5
17 10 7
17 11 1
17 12 1
17 13 5
17 14 3
17 15 9
17 16 1
18 0 4
18 1 6
18 2 10
18 3 9
18 4 10
18 5 8
18 6 8
18 7 9
18 8 7
18 9 4
18 10 4
18 11 10
18 12 4
18 13 3
18 14 9
18 15 1
18 16 7
18 17 2
19 0 6
19 1 9
19 2 2
19 3 3
19 4 6
19 5 1
19 6 2
19 7 9
19 8 7
19 9 5
19 10 5
19 11 2
19 12 3
19 13 2
19 14 1
19 15 7
19 16 2
19 17 5
19 18 1
20 0 6
20 1 1
20 2 1
20 3 5
20 4 1
20 5 10
20 6 4
20 7 7
20 8 10
20 9 7
20 10 3
20 11 7
20 12 1
20 13 1
20 14 1
20 15 5
20 16 1
20 17 1
20 18 9
20 19 1
21 0 2
21 1 8
21 2 8
21 3 8
21 4 1
21 5 9
21 6 9
21 7 4
21 8 3
21 9 6
21 10 9
21 11 9
21 12 7
21 13 1
21 14 4
21 15 8
21 16 5
21 17 3
21 18 5
21 19 10
21 20 5
22 0 9
22 1 6
22 2 7
22 3 8
22 4 7
22 5 8
22 6 5
22 7 3
22 8 6
22 9 1
22 10 4
22 11 4
22 12 6
22 13 5
22 14 3
22 15 8
22 16 3
22 17 1
22 18 2
22 19 9
22 20 6
22 21 9
23 0 2
23 1 4
23 2 8
23 3 6
23 4 4
23 5 6
23 6 8
23 7 10
23 8 6
23 9 10
23 10 1
23 11 4
23 12 6
23 13 9
23 14 10
23 15 8
23 16 5
23 17 7
23 18 3
23 19 1
23 20 7
23 21 4
23 22 3
24 0 3
24 1 10
24 2 9
24 3 8
24 4 3
24 5 4
24 6 9
24 7 3
24 8 3
24 9 2
24 10 3
24 11 4
24 12 1
24 13 4
24 14 6
24 15 10
24 16 5
24 17 9
24 18 7
24 19 5
24 20 10
24 21 1
24 22 5
24 23 2
25 0 5
25 1 2
25 2 3
25 3 4
25 4 10
25 5 9
25 6 6
25 7 9
25 8 8
25 9 6
25 10 7
25 11 2
25 12 10
25 13 9
25 14 10
25 15 4
25 16 1
25 17 2
25 18 7
25 19 1
25 20 2
25 21 9
25 22 1
25 23 5
25 24 7
26 0 9
26 1 2
26 2 2
26 3 4
26 4 6
26 5 4
26 6 6
26 7 7
26 8 9
26 9 8
26 10 6
26 11 7
26 12 1
26 13 2
26 14 2
26 15 9
26 16 4
26 17 3
26 18 1
26 19 2
26 20 5
26 21 6
26 22 1
26 23 9
26 24 6
26 25 1
27 0 9
27 1 9
27 2 1
27 3 6
27 4 6
27 5 6
27 6 2
27 7 4
27 8 10
27 9 1
27 10 2
27 11 5
27 12 1
27 13 9
27 14 9
27 15 8
27 16 4
27 17 4
27 18 9
27 19 1
27 20 4
27 21 4
27 22 8
27 23 3
27 24 2
27 25 5
27 26 8
28 0 9
28 1 3
28 2 10
28 3 6
28 4 6
28 5 4
28 6 4
28 7 8
28 8 10
28 9 8
28 10 8
28 11 1
28 12 9
28 13 4
28 14 3
28 15 2
28 16 1
28 17 3
28 18 9
28 19 8
28 20 8
28 21 3
28 22 2
28 23 5
28 24 5
28 25 4
28 26 8
28 27 7
29 0 8
29 1 6
29 2 9
29 3 8
29 4 1
29 5 9
29 6 6
29 7 5
29 8 1
29 9 2
29 10 7
29 11 9
29 12 8
29 13 9
29 14 8
29 15 3
29 16 5
29 17 2
29 18 5
29 19 5
29 20 7
29 21 4
29 22 6
29 23 2
29 24 8
29 25 7
29 26 3
29 27 4
29 28 2
30 0 3
30 1 4
30 2 10
30 3 4
30 4 6
30 5 9
30 6 6
30 7 7
30 8 4
30 9 5
30 10 10
30 11 1
30 12 1
30 13 8
30 14 8
30 15 6
30 16 5
30 17 6
30 18 8
30 19 8
30 20 8
30 21 3
30 22 2
30 23 9
30 24 1
30 25 2
30 26 7
30 27 6
30 28 9
30 29 1
31 0 10
31 1 3
31 2 8
31 3 3
31 4 6
31 5 10
31 6 7
31 7 1
31 8 2
31 9 10
31 10 4
31 11 4
31 12 10
31 13 8
31 14 8
31 15 2
31 16 6
31 17 6
31 18 8
31 19 2
31 20 9
31 21 1
31 22 9
31 23 9
31 24 6
31 25 3
31 26 4
31 27 2
31 28 7
31 29 3
31 30 5
32 0 5
32 1 4
32 2 10
32 3 5
32 4 10
32 5 7
32 6 5
32 7 4
32 8 4
32 9 4
32 10 7
32 11 3
32 12 10
32 13 3
32 14 4
32 15 9
32 16 5
32 17 8
32 18 9
32 19 2
32 20 8
32 21 3
32 22 3
32 23 4
32 24 4
32 25 2
32 26 3
32 27 6
32 28 6
32 29 4
32 30 5
32 31 1
33 0 4
33 1 2
33 2 8
33 3 5
33 4 5
33 5 9
33 6 1
33 7 1
33 8 7
33 9 2
33 10 6
33 11 9
33 12 2
33 13 9
33 14 1
33 15 7
33 16 3
33 17 4
33 18 10
33 19 7
33 20 1
33 21 2
33 22 1
33 23 2
33 24 1
33 25 3
33 26 1
33 27 1
33 28 8
33 29 8
33 30 10
33 31 6
33 32 6
34 0 2
34 1 9
34 2 6
34 3 2
34 4 10
34 5 1
34 6 10
34 7 9
34 8 9
34 9 3
34 10 6
34 11 5
34 12 5
34 13 7
34 14 4
34 15 2
34 16 4
34 17 9
34 18 4
34 19 1
34 20 5
34 21 5
34 22 5
34 23 9
34 24 4
34 25 9
34 26 7
34 27 8
34 28 4
34 29 9
34 30 4
34 31 8
34 32 10
34 33 10
35 0 9
35 1 9
35 2 3
35 3 6
35 4 3
35 5 8
35 6 7
35 7 9
35 8 8
35 9 2
35 10 7
35 11 6
35 12 4
35 13 6
35 14 7
35 15 2
35 16 6
35 17 2
35 18 4
35 19 9
35 20 4
35 21 9
35 22 5
35 23 1
35 24 8
35 25 1
35 26 1
35 27 3
35 28 8
35 29 7
35 30 2
35 31 10
35 32 9
35 33 2
35 34 7
36 0 4
36 1 4
36 2 1
36 3 10
36 4 2
36 5 3
36 6 5
36 7 8
36 8 1
36 9 2
36 10 8
36 11 6
36 12 4
36 13 6
36 14 8
36 15 4
36 16 1
36 17 7
36 18 8
36 19 5
36 20 10
36 21 1
36 22 2
36 23 3
36 24 5
36 25 1
36 26 7
36 27 4
36 28 2
36 29 3
36 30 3
36 31 7
36 32 4
36 33 7
36 34 10
36 35 1
37 0 6
37 1 9
37 2 9
37 3 5
37 4 5
37 5 2
37 6 7
37 7 8
37 8 7
37 9 6
37 10 3
37 11 2
37 12 9
37 13 1
37 14 1
37 15 1
37 16 2
37 17 7
37 18 8
37 19 8
37 20 5
37 21 8
37 22 6
37 23 5
37 24 10
37 25 2
37 26 10
37 27 1
37 28 9
37 29 9
37 30 5
37 31 1
37 32 4
37 33 7
37 34 4
37 35 5
37 36 7
38 0 4
38 1 7
38 2 9
38 3 9
38 4 10
38 5 2
38 6 7
38 7 4
38 8 9
38 9 6
38 10 2
38 11 5
38 12 9
38 13 3
38 14 5
38 15 2
38 16 1
38 17 1
38 18 7
38 19 7
38 20 4
38 21 2
38 22 1
38 23 7
38 24 10
38 25 1
38 26 7
38 27 9
38 28 2
38 29 5
38 30 3
38 31 1
38 32 7
38 33 10
38 34 4
38 35 4
38 36 6
38 37 7
39 0 7
39 1 6
39 2 9
39 3 8
39 4 3
39 5 2
39 6 1
39 7 2
39 8 4
39 9 4
39 10 9
39 11 1
39 12 10
39 13 10
39 14 1
39 15 6
39 16 1
39 17 3
39 18 4
39 19 5
39 20 7
39 21 9
39 22 3
39 23 10
39 24 3
39 25 9
39 26 7
39 27 9
39 28 3
39 29 9
39 30 1
39 31 8
39 32 9
39 33 5
39 34 8
39 35 4
39 36 3
39 37 5
39 38 8
